10
 9999    5   10    5   12   20    5   12    9   18
    5 9999    5    5    6    8    5    7    4   15
   10    5 9999    8    6    4    9    7    3    5
    5    5    8 9999    6   10    9   14    9   17
   12    6    6    6 9999    5   11   10    7   11
   20    8    4   10    5 9999   14   16    8    7
    5    5    9    9   11   14 9999    6    7   12
   12    7    7   14   10   16    6 9999    3    7
    9    4    3    9    7    8    7    3 9999    6
   18   15    5   17   11    7   12    7    6 9999
